BAYES
625
2 2 2 2 2 2 2 2 2 2 2 2 2 2 2 2 2 2 2 2 2 2 2 2 2 2 2 2 2 2 2 2 2 2 2 2 2 2 2 2 2 2 2 2 2 2 2 2 2 2 2 2 2 2 2 2 2 2 2 2 2 2 2 2 2 2 2 2 2 2 2 2 2 2 2 2 2 2 2 2 2 2 2 2 2 2 2 2 2 2 2 2 2 2 2 2 2 2 2 2 2 2 2 2 2 2 2 2 2 2 2 2 2 2 2 2 2 2 2 2 2 2 2 2 2 2 2 2 2 2 2 2 2 2 2 2 2 2 2 2 2 2 2 2 2 2 2 2 2 2 2 2 2 2 2 2 2 2 2 2 2 2 2 2 2 2 2 2 2 2 2 2 2 2 2 2 2 2 2 2 2 2 2 2 2 2 2 2 2 2 2 2 2 2 2 2 2 2 2 2 2 2 2 2 2 2 2 2 2 2 2 2 2 2 2 2 2 2 2 2 2 2 2 2 2 2 2 2 2 2 2 2 2 2 2 2 2 2 2 2 2 2 2 2 2 2 2 2 2 2 2 2 2 2 2 2 2 2 2 2 2 2 2 2 2 2 2 2 2 2 2 2 2 2 2 2 2 2 2 2 2 2 2 2 2 2 2 2 2 2 2 2 2 2 2 2 2 2 2 2 2 2 2 2 2 2 2 2 2 2 2 2 2 2 2 2 2 2 2 2 2 2 2 2 2 2 2 2 2 2 2 2 2 2 2 2 2 2 2 2 2 2 2 2 2 2 2 2 2 2 2 2 2 2 2 2 2 2 2 2 2 2 2 2 2 2 2 2 2 2 2 2 2 2 2 2 2 2 2 2 2 2 2 2 2 2 2 2 2 2 2 2 2 2 2 2 2 2 2 2 2 2 2 2 2 2 2 2 2 2 2 2 2 2 2 2 2 2 2 2 2 2 2 2 2 2 2 2 2 2 2 2 2 2 2 2 2 2 2 2 2 2 2 2 2 2 2 2 2 2 2 2 2 2 2 2 2 2 2 2 2 2 2 2 2 2 2 2 2 2 2 2 2 2 2 2 2 2 2 2 2 2 2 2 2 2 2 2 2 2 2 2 2 2 2 2 2 2 2 2 2 2 2 2 2 2 2 2 2 2 2 2 2 2 2 2 2 2 2 2 2 2 2 2 2 2 2 2 2 2 2 2 2 2 2 2 2 2 2 2 2 2 2 2 2 2 2 2 2 2 2 2 2 2 2 2 2 2 2 2 2 2 2 2 2 2 2 2 2 2 2 2 2 2 2 2 2 2 2 2 2 2 2 2 2 2 2 2 2 2 2 2 2 2 2 2 2 2 2 2 2 2 2 2 2 2 2 2 2 2 2 2 2 2 2 2 2 2 2 2 2 2 2 2 2
625
3 1 25 0
3 2 26 1
3 3 27 2
3 4 28 3
3 5 29 4
3 6 30 5
3 7 31 6
3 8 32 7
3 9 33 8
3 10 34 9
3 11 35 10
3 12 36 11
3 13 37 12
3 14 38 13
3 15 39 14
3 16 40 15
3 17 41 16
3 18 42 17
3 19 43 18
3 20 44 19
3 21 45 20
3 22 46 21
3 23 47 22
3 24 48 23
2 25 24
3 26 50 25
3 27 51 26
3 28 52 27
3 29 53 28
3 30 54 29
3 31 55 30
3 32 56 31
3 33 57 32
3 34 58 33
3 35 59 34
3 36 60 35
3 37 61 36
3 38 62 37
3 39 63 38
3 40 64 39
3 41 65 40
3 42 66 41
3 43 67 42
3 44 68 43
3 45 69 44
3 46 70 45
3 47 71 46
3 48 72 47
3 49 73 48
2 50 49
3 51 75 50
3 52 76 51
3 53 77 52
3 54 78 53
3 55 79 54
3 56 80 55
3 57 81 56
3 58 82 57
3 59 83 58
3 60 84 59
3 61 85 60
3 62 86 61
3 63 87 62
3 64 88 63
3 65 89 64
3 66 90 65
3 67 91 66
3 68 92 67
3 69 93 68
3 70 94 69
3 71 95 70
3 72 96 71
3 73 97 72
3 74 98 73
2 75 74
3 76 100 75
3 77 101 76
3 78 102 77
3 79 103 78
3 80 104 79
3 81 105 80
3 82 106 81
3 83 107 82
3 84 108 83
3 85 109 84
3 86 110 85
3 87 111 86
3 88 112 87
3 89 113 88
3 90 114 89
3 91 115 90
3 92 116 91
3 93 117 92
3 94 118 93
3 95 119 94
3 96 120 95
3 97 121 96
3 98 122 97
3 99 123 98
2 100 99
3 101 125 100
3 102 126 101
3 103 127 102
3 104 128 103
3 105 129 104
3 106 130 105
3 107 131 106
3 108 132 107
3 109 133 108
3 110 134 109
3 111 135 110
3 112 136 111
3 113 137 112
3 114 138 113
3 115 139 114
3 116 140 115
3 117 141 116
3 118 142 117
3 119 143 118
3 120 144 119
3 121 145 120
3 122 146 121
3 123 147 122
3 124 148 123
2 125 124
3 126 150 125
3 127 151 126
3 128 152 127
3 129 153 128
3 130 154 129
3 131 155 130
3 132 156 131
3 133 157 132
3 134 158 133
3 135 159 134
3 136 160 135
3 137 161 136
3 138 162 137
3 139 163 138
3 140 164 139
3 141 165 140
3 142 166 141
3 143 167 142
3 144 168 143
3 145 169 144
3 146 170 145
3 147 171 146
3 148 172 147
3 149 173 148
2 150 149
3 151 175 150
3 152 176 151
3 153 177 152
3 154 178 153
3 155 179 154
3 156 180 155
3 157 181 156
3 158 182 157
3 159 183 158
3 160 184 159
3 161 185 160
3 162 186 161
3 163 187 162
3 164 188 163
3 165 189 164
3 166 190 165
3 167 191 166
3 168 192 167
3 169 193 168
3 170 194 169
3 171 195 170
3 172 196 171
3 173 197 172
3 174 198 173
2 175 174
3 176 200 175
3 177 201 176
3 178 202 177
3 179 203 178
3 180 204 179
3 181 205 180
3 182 206 181
3 183 207 182
3 184 208 183
3 185 209 184
3 186 210 185
3 187 211 186
3 188 212 187
3 189 213 188
3 190 214 189
3 191 215 190
3 192 216 191
3 193 217 192
3 194 218 193
3 195 219 194
3 196 220 195
3 197 221 196
3 198 222 197
3 199 223 198
2 200 199
3 201 225 200
3 202 226 201
3 203 227 202
3 204 228 203
3 205 229 204
3 206 230 205
3 207 231 206
3 208 232 207
3 209 233 208
3 210 234 209
3 211 235 210
3 212 236 211
3 213 237 212
3 214 238 213
3 215 239 214
3 216 240 215
3 217 241 216
3 218 242 217
3 219 243 218
3 220 244 219
3 221 245 220
3 222 246 221
3 223 247 222
3 224 248 223
2 225 224
3 226 250 225
3 227 251 226
3 228 252 227
3 229 253 228
3 230 254 229
3 231 255 230
3 232 256 231
3 233 257 232
3 234 258 233
3 235 259 234
3 236 260 235
3 237 261 236
3 238 262 237
3 239 263 238
3 240 264 239
3 241 265 240
3 242 266 241
3 243 267 242
3 244 268 243
3 245 269 244
3 246 270 245
3 247 271 246
3 248 272 247
3 249 273 248
2 250 249
3 251 275 250
3 252 276 251
3 253 277 252
3 254 278 253
3 255 279 254
3 256 280 255
3 257 281 256
3 258 282 257
3 259 283 258
3 260 284 259
3 261 285 260
3 262 286 261
3 263 287 262
3 264 288 263
3 265 289 264
3 266 290 265
3 267 291 266
3 268 292 267
3 269 293 268
3 270 294 269
3 271 295 270
3 272 296 271
3 273 297 272
3 274 298 273
2 275 274
3 276 300 275
3 277 301 276
3 278 302 277
3 279 303 278
3 280 304 279
3 281 305 280
3 282 306 281
3 283 307 282
3 284 308 283
3 285 309 284
3 286 310 285
3 287 311 286
3 288 312 287
3 289 313 288
3 290 314 289
3 291 315 290
3 292 316 291
3 293 317 292
3 294 318 293
3 295 319 294
3 296 320 295
3 297 321 296
3 298 322 297
3 299 323 298
2 300 299
3 301 325 300
3 302 326 301
3 303 327 302
3 304 328 303
3 305 329 304
3 306 330 305
3 307 331 306
3 308 332 307
3 309 333 308
3 310 334 309
3 311 335 310
3 312 336 311
3 313 337 312
3 314 338 313
3 315 339 314
3 316 340 315
3 317 341 316
3 318 342 317
3 319 343 318
3 320 344 319
3 321 345 320
3 322 346 321
3 323 347 322
3 324 348 323
2 325 324
3 326 350 325
3 327 351 326
3 328 352 327
3 329 353 328
3 330 354 329
3 331 355 330
3 332 356 331
3 333 357 332
3 334 358 333
3 335 359 334
3 336 360 335
3 337 361 336
3 338 362 337
3 339 363 338
3 340 364 339
3 341 365 340
3 342 366 341
3 343 367 342
3 344 368 343
3 345 369 344
3 346 370 345
3 347 371 346
3 348 372 347
3 349 373 348
2 350 349
3 351 375 350
3 352 376 351
3 353 377 352
3 354 378 353
3 355 379 354
3 356 380 355
3 357 381 356
3 358 382 357
3 359 383 358
3 360 384 359
3 361 385 360
3 362 386 361
3 363 387 362
3 364 388 363
3 365 389 364
3 366 390 365
3 367 391 366
3 368 392 367
3 369 393 368
3 370 394 369
3 371 395 370
3 372 396 371
3 373 397 372
3 374 398 373
2 375 374
3 376 400 375
3 377 401 376
3 378 402 377
3 379 403 378
3 380 404 379
3 381 405 380
3 382 406 381
3 383 407 382
3 384 408 383
3 385 409 384
3 386 410 385
3 387 411 386
3 388 412 387
3 389 413 388
3 390 414 389
3 391 415 390
3 392 416 391
3 393 417 392
3 394 418 393
3 395 419 394
3 396 420 395
3 397 421 396
3 398 422 397
3 399 423 398
2 400 399
3 401 425 400
3 402 426 401
3 403 427 402
3 404 428 403
3 405 429 404
3 406 430 405
3 407 431 406
3 408 432 407
3 409 433 408
3 410 434 409
3 411 435 410
3 412 436 411
3 413 437 412
3 414 438 413
3 415 439 414
3 416 440 415
3 417 441 416
3 418 442 417
3 419 443 418
3 420 444 419
3 421 445 420
3 422 446 421
3 423 447 422
3 424 448 423
2 425 424
3 426 450 425
3 427 451 426
3 428 452 427
3 429 453 428
3 430 454 429
3 431 455 430
3 432 456 431
3 433 457 432
3 434 458 433
3 435 459 434
3 436 460 435
3 437 461 436
3 438 462 437
3 439 463 438
3 440 464 439
3 441 465 440
3 442 466 441
3 443 467 442
3 444 468 443
3 445 469 444
3 446 470 445
3 447 471 446
3 448 472 447
3 449 473 448
2 450 449
3 451 475 450
3 452 476 451
3 453 477 452
3 454 478 453
3 455 479 454
3 456 480 455
3 457 481 456
3 458 482 457
3 459 483 458
3 460 484 459
3 461 485 460
3 462 486 461
3 463 487 462
3 464 488 463
3 465 489 464
3 466 490 465
3 467 491 466
3 468 492 467
3 469 493 468
3 470 494 469
3 471 495 470
3 472 496 471
3 473 497 472
3 474 498 473
2 475 474
3 476 500 475
3 477 501 476
3 478 502 477
3 479 503 478
3 480 504 479
3 481 505 480
3 482 506 481
3 483 507 482
3 484 508 483
3 485 509 484
3 486 510 485
3 487 511 486
3 488 512 487
3 489 513 488
3 490 514 489
3 491 515 490
3 492 516 491
3 493 517 492
3 494 518 493
3 495 519 494
3 496 520 495
3 497 521 496
3 498 522 497
3 499 523 498
2 500 499
3 501 525 500
3 502 526 501
3 503 527 502
3 504 528 503
3 505 529 504
3 506 530 505
3 507 531 506
3 508 532 507
3 509 533 508
3 510 534 509
3 511 535 510
3 512 536 511
3 513 537 512
3 514 538 513
3 515 539 514
3 516 540 515
3 517 541 516
3 518 542 517
3 519 543 518
3 520 544 519
3 521 545 520
3 522 546 521
3 523 547 522
3 524 548 523
2 525 524
3 526 550 525
3 527 551 526
3 528 552 527
3 529 553 528
3 530 554 529
3 531 555 530
3 532 556 531
3 533 557 532
3 534 558 533
3 535 559 534
3 536 560 535
3 537 561 536
3 538 562 537
3 539 563 538
3 540 564 539
3 541 565 540
3 542 566 541
3 543 567 542
3 544 568 543
3 545 569 544
3 546 570 545
3 547 571 546
3 548 572 547
3 549 573 548
2 550 549
3 551 575 550
3 552 576 551
3 553 577 552
3 554 578 553
3 555 579 554
3 556 580 555
3 557 581 556
3 558 582 557
3 559 583 558
3 560 584 559
3 561 585 560
3 562 586 561
3 563 587 562
3 564 588 563
3 565 589 564
3 566 590 565
3 567 591 566
3 568 592 567
3 569 593 568
3 570 594 569
3 571 595 570
3 572 596 571
3 573 597 572
3 574 598 573
2 575 574
3 576 600 575
3 577 601 576
3 578 602 577
3 579 603 578
3 580 604 579
3 581 605 580
3 582 606 581
3 583 607 582
3 584 608 583
3 585 609 584
3 586 610 585
3 587 611 586
3 588 612 587
3 589 613 588
3 590 614 589
3 591 615 590
3 592 616 591
3 593 617 592
3 594 618 593
3 595 619 594
3 596 620 595
3 597 621 596
3 598 622 597
3 599 623 598
2 600 599
2 625 600
2 626 601
2 627 602
2 628 603
2 629 604
2 630 605
2 631 606
2 632 607
2 633 608
2 634 609
2 635 610
2 636 611
2 637 612
2 638 613
2 639 614
2 640 615
2 641 616
2 642 617
2 643 618
2 644 619
2 645 620
2 646 621
2 647 622
2 648 623
1  624
8
1 0 0 1 1 0 1 0
8
0 1 0 1 0 1 1 0
8
1 0 1 0 0 1 1 0
8
0 1 1 0 0 1 0 1
8
0 1 1 0 0 1 1 0
8
0 1 1 0 0 1 1 0
8
0 1 1 0 0 1 1 0
8
0 1 1 0 0 1 0 1
8
0 1 1 0 1 0 0 1
8
1 0 0 1 1 0 1 0
8
0.30672473348476265 0.6932752665152374 0.3295101720271708 0.6704898279728292 0.44900401739201934 0.5509959826079807 0.4959178866908107 0.5040821133091893
8
0.22488867044122415 0.7751113295587758 0.9886124851831048 0.011387514816895188 0.4809494134826368 0.5190505865173631 0.6286200936808108 0.3713799063191892
8
0 1 0 1 1 0 1 0
8
1 0 0 1 1 0 1 0
8
0 1 1 0 1 0 0 1
8
1 0 1 0 0 1 1 0
8
0 1 1 0 1 0 1 0
8
0 1 0 1 0 1 1 0
8
0 1 0 1 0 1 1 0
8
1 0 1 0 1 0 0 1
8
1 0 0 1 0 1 0 1
8
1 0 0 1 1 0 1 0
8
0.44884900814294215 0.551150991857058 0.6951003043066214 0.3048996956933786 0.6924522736600517 0.30754772633994837 0.43603386472179095 0.563966135278209
8
1 0 1 0 1 0 1 0
4
0 1 0 1
8
1 0 1 0 1 0 1 0
8
1 0 1 0 1 0 0 1
8
0 1 1 0 0 1 1 0
8
0 1 1 0 0 1 0 1
8
0 1 1 0 0 1 0 1
8
1 0 1 0 1 0 1 0
8
1 0 1 0 1 0 1 0
8
1 0 0 1 1 0 0 1
8
1 0 0 1 0 1 1 0
8
0.6060989623577068 0.3939010376422933 0.5850356669711702 0.4149643330288298 0.4451756852595432 0.5548243147404568 0.2213220923290442 0.7786779076709558
8
0 1 0 1 1 0 0 1
8
1 0 0 1 0 1 0 1
8
1 0 1 0 0 1 1 0
8
0 1 1 0 1 0 0 1
8
1 0 1 0 0 1 1 0
8
1 0 0 1 1 0 0 1
8
0.5048418196129386 0.49515818038706144 0.5284952529704369 0.47150474702956324 0.40291210172769526 0.5970878982723046 0.33122462282100357 0.6687753771789964
8
0.5320253767632511 0.4679746232367489 0.37320590653516617 0.626794093464834 0.6999724377688802 0.3000275622311198 0.002160257974562721 0.9978397420254372
8
0 1 1 0 0 1 0 1
8
0.44304057712596484 0.5569594228740352 0.6615274774115875 0.33847252258841243 0.05771902574534327 0.9422809742546567 0.3690886853221041 0.6309113146778959
8
1 0 1 0 1 0 1 0
8
1 0 1 0 1 0 0 1
8
0 1 0 1 0 1 1 0
8
0.20856389350518276 0.7914361064948172 0.66458015729117 0.3354198427088299 0.2644928709552633 0.7355071290447367 0.3904057058617017 0.6095942941382982
4
0.6498603930555246 0.3501396069444754 0.6004719174024348 0.3995280825975653
8
0 1 0 1 0 1 0 1
8
0 1 0 1 1 0 0 1
8
1 0 1 0 1 0 0 1
8
1 0 1 0 0 1 1 0
8
1 0 1 0 1 0 1 0
8
0.8243521273242039 0.17564787267579593 0.595347320640505 0.4046526793594951 0.7313798883102692 0.26862011168973066 0.4227857007720953 0.5772142992279047
8
1 0 0 1 0 1 0 1
8
0 1 1 0 0 1 0 1
8
1 0 0 1 0 1 0 1
8
0 1 1 0 0 1 0 1
8
1 0 0 1 1 0 0 1
8
1 0 1 0 0 1 0 1
8
0 1 0 1 1 0 0 1
8
1 0 1 0 0 1 1 0
8
0 1 1 0 0 1 0 1
8
0 1 1 0 1 0 1 0
8
1 0 1 0 0 1 1 0
8
0 1 0 1 1 0 1 0
8
0.4628509448730112 0.5371490551269889 0.6125285192169839 0.387471480783016 0.5301708885453452 0.4698291114546548 0.5551055729413092 0.44489442705869064
8
0 1 1 0 1 0 1 0
8
0 1 0 1 0 1 0 1
8
0 1 1 0 0 1 0 1
8
0 1 0 1 0 1 0 1
8
1 0 0 1 0 1 0 1
4
0 1 0 1
8
0 1 0 1 0 1 0 1
8
1 0 1 0 1 0 1 0
8
1 0 1 0 0 1 1 0
8
0.9739907383765286 0.026009261623471364 0.6436163250974033 0.3563836749025968 0.1419132894081786 0.8580867105918214 0.8838195995328271 0.11618040046717296
8
0 1 0 1 1 0 1 0
8
1 0 1 0 1 0 1 0
8
1 0 0 1 0 1 1 0
8
0 1 1 0 1 0 0 1
8
0 1 0 1 1 0 1 0
8
0 1 1 0 0 1 0 1
8
0 1 0 1 0 1 1 0
8
1 0 0 1 0 1 0 1
8
1 0 0 1 0 1 1 0
8
1 0 0 1 0 1 0 1
8
0 1 0 1 1 0 0 1
8
0 1 1 0 1 0 0 1
8
1 0 1 0 1 0 1 0
8
0 1 1 0 0 1 1 0
8
1 0 0 1 0 1 1 0
8
0 1 0 1 1 0 0 1
8
0 1 1 0 1 0 0 1
8
0 1 1 0 1 0 0 1
8
1 0 1 0 0 1 1 0
8
0 1 0 1 1 0 0 1
4
1 0 1 0
8
0 1 1 0 1 0 1 0
8
1 0 1 0 0 1 0 1
8
0 1 1 0 0 1 0 1
8
0 1 0 1 1 0 1 0
8
0 1 0 1 0 1 1 0
8
1 0 1 0 0 1 1 0
8
0 1 0 1 1 0 1 0
8
1 0 1 0 0 1 0 1
8
0 1 1 0 0 1 1 0
8
0 1 1 0 0 1 1 0
8
0 1 0 1 0 1 0 1
8
1 0 0 1 0 1 0 1
8
1 0 0 1 1 0 0 1
8
1 0 0 1 0 1 1 0
8
0 1 0 1 1 0 1 0
8
0 1 1 0 0 1 1 0
8
1 0 1 0 0 1 1 0
8
1 0 1 0 1 0 0 1
8
0.2499971339107746 0.7500028660892254 0.43231598512749575 0.5676840148725042 0.5286398539890789 0.4713601460109211 0.033486499475913055 0.9665135005240869
8
1 0 0 1 0 1 1 0
8
1 0 0 1 1 0 0 1
8
0.21380135341189102 0.786198646588109 0.632282835525526 0.3677171644744739 0.07410460243678993 0.9258953975632102 0.4955820751801376 0.5044179248198625
8
1 0 0 1 0 1 1 0
8
1 0 0 1 1 0 0 1
4
1 0 0 1
8
1 0 1 0 1 0 1 0
8
0 1 0 1 0 1 1 0
8
0 1 0 1 1 0 0 1
8
0 1 1 0 0 1 0 1
8
0 1 1 0 1 0 0 1
8
1 0 0 1 1 0 0 1
8
0 1 1 0 1 0 0 1
8
0 1 1 0 0 1 0 1
8
0 1 1 0 1 0 1 0
8
1 0 0 1 1 0 0 1
8
1 0 1 0 0 1 0 1
8
1 0 0 1 1 0 1 0
8
0 1 1 0 0 1 0 1
8
0.7122241977112624 0.2877758022887375 0.6619196456975297 0.33808035430247024 0.5503515581457212 0.4496484418542788 0.6319271881025387 0.3680728118974613
8
1 0 0 1 0 1 0 1
8
1 0 1 0 1 0 0 1
8
0 1 1 0 0 1 1 0
8
0 1 1 0 0 1 0 1
8
0 1 0 1 1 0 1 0
8
0 1 0 1 1 0 1 0
8
0 1 1 0 1 0 1 0
8
1 0 0 1 0 1 0 1
8
1 0 0 1 1 0 0 1
8
0 1 1 0 1 0 0 1
4
0 1 1 0
8
1 0 1 0 0 1 1 0
8
0 1 0 1 1 0 1 0
8
0 1 0 1 1 0 1 0
8
1 0 1 0 1 0 0 1
8
0.5656007164810198 0.4343992835189802 0.5420074290809402 0.45799257091905976 0.12865230442970654 0.8713476955702935 0.42202758318903305 0.577972416810967
8
0 1 0 1 1 0 1 0
8
1 0 0 1 1 0 0 1
8
1 0 0 1 0 1 0 1
8
0 1 0 1 1 0 0 1
8
0 1 0 1 1 0 0 1
8
1 0 0 1 0 1 1 0
8
1 0 1 0 1 0 1 0
8
0 1 1 0 0 1 0 1
8
0.6265951001320296 0.3734048998679704 0.5279982636450596 0.47200173635494036 0.35075461206324265 0.6492453879367573 0.517292202877664 0.48270779712233597
8
1 0 1 0 0 1 0 1
8
1 0 0 1 1 0 1 0
8
0.6041787141607146 0.39582128583928544 0.5551818056842379 0.444818194315762 0.4172772158454458 0.5827227841545541 0.650146974886292 0.34985302511370797
8
1 0 1 0 0 1 1 0
8
0.1761166317904217 0.8238833682095783 0.5917049691652654 0.4082950308347346 0.48038360103552175 0.5196163989644782 0.7418110826171801 0.2581889173828199
8
0.4231515978956588 0.5768484021043412 0.24934873459247445 0.7506512654075256 0.6883689607522357 0.31163103924776425 0.9687450387062216 0.031254961293778374
8
1 0 0 1 1 0 0 1
8
1 0 0 1 1 0 0 1
8
0.3707684010461356 0.6292315989538644 0.6399686428376864 0.36003135716231355 0.2951194705749009 0.704880529425099 0.2009488506424417 0.7990511493575584
8
0 1 0 1 0 1 0 1
4
1 0 0 1
8
0 1 1 0 0 1 1 0
8
0.6078360887682718 0.3921639112317282 0.5794284917031547 0.42057150829684525 0.3871654557874433 0.6128345442125566 0.5887519665520188 0.4112480334479812
8
0 1 1 0 0 1 1 0
8
0 1 1 0 0 1 0 1
8
1 0 1 0 0 1 0 1
8
1 0 0 1 0 1 0 1
8
1 0 0 1 0 1 0 1
8
0 1 1 0 1 0 0 1
8
0 1 1 0 1 0 1 0
8
1 0 0 1 1 0 0 1
8
0 1 1 0 1 0 0 1
8
1 0 0 1 0 1 1 0
8
1 0 0 1 0 1 1 0
8
0 1 0 1 1 0 1 0
8
0 1 1 0 1 0 1 0
8
0 1 0 1 1 0 1 0
8
0 1 0 1 1 0 1 0
8
1 0 0 1 0 1 0 1
8
0 1 0 1 1 0 1 0
8
0.8783841889781856 0.12161581102181435 0.4800987661598601 0.5199012338401399 0.5582155254134807 0.44178447458651926 0.9250682304700945 0.0749317695299055
8
1 0 0 1 1 0 0 1
8
1 0 1 0 0 1 1 0
8
1 0 1 0 0 1 0 1
8
1 0 1 0 1 0 0 1
4
1 0 1 0
8
0.4059172490546807 0.5940827509453193 0.6878257654599693 0.31217423454003074 0.8788872235204658 0.12111277647953422 0.5285424457595288 0.47145755424047125
8
0 1 1 0 1 0 1 0
8
0.7902008162270178 0.20979918377298226 0.5262784545636063 0.4737215454363936 0.22198704927359506 0.778012950726405 0.32707651379658575 0.6729234862034141
8
1 0 1 0 1 0 0 1
8
0 1 1 0 0 1 0 1
8
1 0 1 0 0 1 1 0
8
0 1 1 0 0 1 0 1
8
1 0 1 0 1 0 1 0
8
0 1 0 1 1 0 1 0
8
0 1 1 0 0 1 0 1
8
0.4761350730790042 0.5238649269209958 0.6376403341725149 0.3623596658274852 0.5822223662480563 0.4177776337519437 0.15374215917564873 0.8462578408243513
8
0 1 1 0 1 0 1 0
8
1 0 1 0 0 1 0 1
8
1 0 1 0 0 1 1 0
8
1 0 1 0 0 1 0 1
8
1 0 0 1 0 1 1 0
8
0 1 1 0 0 1 1 0
8
0 1 0 1 1 0 1 0
8
0.06844753627143223 0.9315524637285678 0.4683946148781874 0.5316053851218125 0.6249844165862224 0.37501558341377766 0.3111431845855108 0.6888568154144892
8
1 0 1 0 0 1 1 0
8
1 0 1 0 0 1 1 0
8
1 0 1 0 0 1 1 0
8
0 1 1 0 0 1 1 0
8
0 1 1 0 0 1 0 1
4
0 1 1 0
8
0 1 1 0 1 0 1 0
8
0 1 1 0 0 1 0 1
8
1 0 1 0 0 1 0 1
8
0 1 0 1 1 0 1 0
8
1 0 1 0 0 1 1 0
8
0 1 0 1 0 1 1 0
8
0 1 0 1 0 1 0 1
8
0 1 1 0 0 1 1 0
8
0 1 0 1 1 0 1 0
8
0.4457662000710874 0.5542337999289126 0.34238845793946915 0.6576115420605309 0.4638932399076626 0.5361067600923374 0.27556462814379046 0.7244353718562094
8
0 1 0 1 0 1 1 0
8
0 1 0 1 1 0 0 1
8
1 0 0 1 0 1 0 1
8
0 1 1 0 1 0 0 1
8
0 1 0 1 1 0 1 0
8
1 0 1 0 1 0 1 0
8
1 0 0 1 1 0 1 0
8
0 1 1 0 0 1 0 1
8
0.3996486728128282 0.600351327187172 0.6158496339095313 0.3841503660904687 0.6394353381226059 0.36056466187739405 0.5904789616318401 0.40952103836815984
8
0 1 0 1 1 0 0 1
8
1 0 0 1 1 0 1 0
8
0 1 1 0 1 0 1 0
8
1 0 1 0 0 1 0 1
8
0.021446554234885902 0.978553445765114 0.5588083345301649 0.4411916654698351 0.7838133494157304 0.21618665058426959 0.6263998701468727 0.3736001298531274
4
1 0 0 1
8
1 0 0 1 0 1 1 0
8
1 0 0 1 0 1 0 1
8
0 1 1 0 0 1 1 0
8
0.4806108050006254 0.5193891949993746 0.026732152322674136 0.9732678476773259 0.9296081668553559 0.07039183314464416 0.6930279249751902 0.30697207502480983
8
0 1 0 1 1 0 0 1
8
0 1 0 1 1 0 1 0
8
0.23699479247453548 0.7630052075254645 0.5473632293246177 0.4526367706753824 0.7807318954203483 0.21926810457965173 0.40596467402715136 0.5940353259728487
8
0 1 0 1 0 1 0 1
8
1 0 0 1 1 0 0 1
8
0 1 0 1 0 1 1 0
8
0 1 0 1 0 1 1 0
8
0 1 0 1 1 0 1 0
8
0 1 1 0 0 1 0 1
8
0 1 1 0 1 0 1 0
8
0 1 0 1 1 0 1 0
8
0 1 1 0 1 0 1 0
8
0.2762664427225469 0.7237335572774531 0.4321351443517516 0.5678648556482484 0.631484009292921 0.368515990707079 0.5004951759200724 0.49950482407992763
8
1 0 1 0 1 0 1 0
8
1 0 1 0 1 0 1 0
8
1 0 0 1 0 1 1 0
8
0.10526728199468106 0.894732718005319 0.3116459981884363 0.6883540018115637 0.4432293196410615 0.5567706803589385 0.04216167494772495 0.9578383250522751
8
1 0 0 1 1 0 0 1
8
0.7236244006268018 0.2763755993731983 0.15389532063383268 0.8461046793661672 0.1566225714195247 0.8433774285804753 0.5009423958641807 0.49905760413581945
8
1 0 0 1 1 0 0 1
4
1 0 1 0
8
0 1 1 0 1 0 0 1
8
1 0 1 0 1 0 1 0
8
1 0 0 1 0 1 1 0
8
1 0 0 1 0 1 1 0
8
0 1 1 0 0 1 1 0
8
0 1 0 1 0 1 1 0
8
1 0 0 1 0 1 1 0
8
0 1 0 1 1 0 0 1
8
1 0 1 0 0 1 0 1
8
1 0 1 0 1 0 0 1
8
0 1 1 0 1 0 0 1
8
1 0 1 0 0 1 0 1
8
0 1 1 0 1 0 0 1
8
0 1 1 0 0 1 0 1
8
0 1 0 1 0 1 1 0
8
0 1 1 0 0 1 0 1
8
1 0 1 0 1 0 0 1
8
0 1 0 1 0 1 0 1
8
0 1 1 0 1 0 1 0
8
1 0 0 1 0 1 0 1
8
1 0 1 0 1 0 0 1
8
1 0 1 0 1 0 1 0
8
1 0 1 0 0 1 1 0
8
1 0 1 0 1 0 1 0
4
0 1 0 1
8
1 0 0 1 1 0 0 1
8
1 0 0 1 1 0 0 1
8
0.13998808558526735 0.8600119144147327 0.36741737580081285 0.6325826241991872 0.4954493902979058 0.5045506097020942 0.5012297445205013 0.49877025547949877
8
1 0 1 0 1 0 0 1
8
0 1 0 1 1 0 0 1
8
1 0 0 1 0 1 1 0
8
1 0 1 0 0 1 0 1
8
1 0 1 0 1 0 1 0
8
1 0 1 0 0 1 1 0
8
0 1 0 1 0 1 0 1
8
0 1 0 1 1 0 0 1
8
0 1 1 0 1 0 0 1
8
0 1 1 0 1 0 0 1
8
1 0 1 0 0 1 1 0
8
1 0 1 0 0 1 0 1
8
0 1 0 1 1 0 0 1
8
1 0 1 0 0 1 1 0
8
0.20579502140349112 0.7942049785965088 0.8211892571793431 0.17881074282065693 0.1363996908038216 0.8636003091961784 0.4025596199935314 0.5974403800064686
8
1 0 0 1 0 1 0 1
8
0 1 1 0 1 0 0 1
8
1 0 0 1 0 1 1 0
8
0 1 0 1 0 1 1 0
8
0 1 0 1 1 0 0 1
8
1 0 0 1 0 1 1 0
4
1 0 0 1
8
0 1 0 1 0 1 0 1
8
1 0 0 1 0 1 0 1
8
1 0 1 0 0 1 0 1
8
0.5735758694202192 0.42642413057978085 0.7096325367432036 0.2903674632567964 0.33595675507639233 0.6640432449236078 0.42255207396432404 0.577447926035676
8
1 0 0 1 1 0 0 1
8
1 0 0 1 1 0 1 0
8
0 1 1 0 0 1 0 1
8
0 1 1 0 0 1 0 1
8
1 0 1 0 1 0 1 0
8
0.963287788279407 0.03671221172059298 0.5833196955408971 0.41668030445910276 0.8883714572879137 0.11162854271208636 0.29904974550365265 0.7009502544963474
8
0 1 0 1 1 0 1 0
8
0.8305020380001793 0.16949796199982084 0.0008899755901294294 0.9991100244098706 0.17354183814108887 0.8264581618589111 0.7492386780179952 0.2507613219820048
8
0 1 1 0 0 1 1 0
8
1 0 0 1 1 0 1 0
8
1 0 1 0 1 0 1 0
8
1 0 1 0 1 0 0 1
8
1 0 1 0 0 1 0 1
8
1 0 0 1 1 0 0 1
8
1 0 1 0 1 0 0 1
8
0 1 1 0 1 0 0 1
8
0 1 0 1 0 1 0 1
8
1 0 0 1 1 0 1 0
8
0 1 0 1 1 0 1 0
8
0 1 1 0 0 1 0 1
4
0 1 1 0
8
1 0 1 0 1 0 1 0
8
1 0 1 0 1 0 1 0
8
1 0 1 0 0 1 0 1
8
1 0 0 1 1 0 0 1
8
1 0 1 0 0 1 1 0
8
1 0 1 0 1 0 1 0
8
0.33817720084988856 0.6618227991501114 0.7154627138623231 0.2845372861376769 0.2540216580988108 0.7459783419011893 0.7430801222347649 0.256919877765235
8
0 1 1 0 0 1 0 1
8
0.26269948500349327 0.7373005149965066 0.46422919332829193 0.535770806671708 0.43723106570904363 0.5627689342909563 0.7654793144813389 0.23452068551866115
8
0 1 0 1 0 1 0 1
8
0 1 1 0 0 1 1 0
8
0 1 1 0 0 1 1 0
8
0 1 1 0 0 1 0 1
8
0.4170146894023912 0.5829853105976087 0.37437143814872526 0.6256285618512748 0.810537561392348 0.18946243860765194 0.9480090125563174 0.051990987443682586
8
0 1 0 1 1 0 1 0
8
0 1 1 0 1 0 0 1
8
1 0 0 1 0 1 0 1
8
1 0 0 1 0 1 0 1
8
0 1 0 1 1 0 0 1
8
1 0 1 0 1 0 0 1
8
1 0 1 0 0 1 0 1
8
0 1 0 1 0 1 0 1
8
0 1 1 0 1 0 1 0
8
0.4716006418088217 0.5283993581911782 0.16948662466264702 0.830513375337353 0.13206487341752216 0.8679351265824778 0.37222632683375795 0.6277736731662421
4
0.38006624056115124 0.6199337594388488 0.7577327412220477 0.24226725877795227
8
1 0 0 1 1 0 1 0
8
1 0 0 1 1 0 1 0
8
1 0 0 1 1 0 0 1
8
0 1 1 0 1 0 1 0
8
1 0 1 0 1 0 0 1
8
1 0 0 1 0 1 1 0
8
1 0 1 0 1 0 0 1
8
0 1 1 0 0 1 1 0
8
0 1 1 0 0 1 0 1
8
1 0 1 0 0 1 0 1
8
0 1 1 0 0 1 0 1
8
0 1 1 0 1 0 1 0
8
0 1 1 0 0 1 1 0
8
1 0 0 1 1 0 1 0
8
0 1 0 1 0 1 1 0
8
1 0 1 0 1 0 0 1
8
1 0 0 1 1 0 1 0
8
1 0 0 1 1 0 1 0
8
1 0 1 0 0 1 1 0
8
1 0 1 0 1 0 0 1
8
0.3770722237201137 0.6229277762798863 0.31224215786849935 0.6877578421315007 0.5345191347250428 0.4654808652749572 0.738289220910938 0.2617107790890621
8
0.6123938072704188 0.3876061927295812 0.5022130871128337 0.49778691288716626 0.4843286927118624 0.5156713072881375 0.06907999203759964 0.9309200079624004
8
1 0 1 0 0 1 0 1
8
0 1 0 1 0 1 1 0
4
0 1 1 0
8
0 1 1 0 0 1 0 1
8
1 0 0 1 1 0 0 1
8
0 1 1 0 1 0 0 1
8
0.9234780268662375 0.07652197313376254 0.6876352763596023 0.31236472364039775 0.6216612884183496 0.37833871158165044 0.891911046594675 0.10808895340532498
8
0 1 1 0 1 0 1 0
8
0 1 1 0 0 1 1 0
8
1 0 0 1 0 1 1 0
8
1 0 0 1 1 0 0 1
8
0 1 0 1 1 0 0 1
8
1 0 1 0 0 1 0 1
8
1 0 0 1 1 0 1 0
8
0 1 0 1 0 1 0 1
8
0.4826075930957006 0.5173924069042994 0.4018845723452848 0.5981154276547153 0.9169565605278182 0.08304343947218183 0.8415862758074779 0.15841372419252214
8
0 1 0 1 1 0 1 0
8
0.867909977405035 0.13209002259496502 0.9116853810152304 0.08831461898476956 0.507407041566054 0.49259295843394596 0.579020743234644 0.4209792567653561
8
0 1 0 1 1 0 1 0
8
0 1 1 0 1 0 1 0
8
0 1 0 1 0 1 1 0
8
1 0 1 0 1 0 1 0
8
0 1 1 0 0 1 1 0
8
1 0 1 0 1 0 0 1
8
0 1 0 1 0 1 0 1
8
0.12952799746609647 0.8704720025339036 0.5913663902809108 0.40863360971908913 0.5533976782026148 0.44660232179738524 0.6339786010370831 0.36602139896291686
8
1 0 0 1 0 1 1 0
4
1 0 1 0
8
1 0 1 0 1 0 1 0
8
1 0 0 1 1 0 0 1
8
1 0 1 0 1 0 1 0
8
0 1 1 0 1 0 0 1
8
0 1 1 0 1 0 0 1
8
0 1 0 1 0 1 1 0
8
0 1 0 1 1 0 0 1
8
1 0 1 0 1 0 1 0
8
0 1 0 1 0 1 0 1
8
1 0 1 0 1 0 0 1
8
0 1 0 1 1 0 1 0
8
0 1 0 1 0 1 1 0
8
1 0 1 0 0 1 0 1
8
1 0 1 0 0 1 0 1
8
1 0 0 1 0 1 0 1
8
0 1 1 0 0 1 0 1
8
0 1 1 0 1 0 0 1
8
0 1 1 0 0 1 0 1
8
0.3193767648851186 0.6806232351148813 0.22686237286697108 0.7731376271330289 0.6238037732613352 0.37619622673866493 0.41240631701175523 0.5875936829882449
8
0.13497218460488852 0.8650278153951115 0.568959655336016 0.43104034466398405 0.543827200941996 0.45617279905800395 0.5885678034512987 0.41143219654870133
8
0 1 0 1 1 0 0 1
8
1 0 0 1 1 0 1 0
8
0 1 1 0 1 0 0 1
8
0 1 1 0 1 0 1 0
4
0 1 1 0
8
0 1 0 1 0 1 0 1
8
0 1 1 0 0 1 1 0
8
0 1 1 0 1 0 1 0
8
0 1 1 0 1 0 0 1
8
1 0 0 1 1 0 1 0
8
1 0 0 1 0 1 1 0
8
0 1 1 0 1 0 1 0
8
1 0 1 0 0 1 1 0
8
0 1 1 0 0 1 1 0
8
0 1 0 1 0 1 1 0
8
1 0 1 0 0 1 1 0
8
0 1 0 1 1 0 0 1
8
1 0 0 1 0 1 1 0
8
1 0 0 1 1 0 0 1
8
1 0 1 0 1 0 0 1
8
1 0 0 1 0 1 1 0
8
0 1 0 1 1 0 1 0
8
1 0 0 1 1 0 0 1
8
0 1 0 1 0 1 0 1
8
1 0 1 0 0 1 1 0
8
0 1 1 0 1 0 1 0
8
1 0 0 1 0 1 0 1
8
1 0 1 0 0 1 1 0
8
1 0 0 1 1 0 0 1
4
0 1 0 1
8
0 1 0 1 0 1 1 0
8
1 0 1 0 0 1 0 1
8
0 1 1 0 0 1 1 0
8
0 1 0 1 1 0 0 1
8
1 0 1 0 1 0 0 1
8
1 0 1 0 1 0 0 1
8
1 0 0 1 1 0 1 0
8
0 1 1 0 0 1 0 1
8
0 1 0 1 0 1 1 0
8
1 0 0 1 1 0 0 1
8
1 0 1 0 1 0 1 0
8
1 0 1 0 1 0 1 0
8
1 0 1 0 1 0 1 0
8
1 0 0 1 0 1 1 0
8
1 0 1 0 0 1 1 0
8
1 0 0 1 0 1 0 1
8
1 0 1 0 1 0 0 1
8
0 1 1 0 0 1 0 1
8
0 1 1 0 0 1 0 1
8
0 1 1 0 1 0 1 0
8
1 0 0 1 0 1 1 0
8
0 1 0 1 0 1 0 1
8
1 0 1 0 0 1 0 1
8
0 1 0 1 0 1 1 0
4
0 1 1 0
8
1 0 1 0 1 0 1 0
8
1 0 1 0 0 1 1 0
8
0.2285291003175059 0.7714708996824942 0.9818797300604465 0.01812026993955346 0.5503476699703947 0.4496523300296053 0.42280151307016955 0.5771984869298304
8
1 0 0 1 1 0 0 1
8
0 1 0 1 1 0 1 0
8
0 1 0 1 0 1 1 0
8
0 1 0 1 0 1 1 0
8
0 1 1 0 0 1 0 1
8
0 1 1 0 0 1 1 0
8
1 0 1 0 0 1 1 0
8
0.13538673567682166 0.8646132643231783 0.2914420598149616 0.7085579401850384 0.7226694137313427 0.27733058626865714 0.8249069197077548 0.1750930802922453
8
1 0 0 1 0 1 0 1
8
0 1 0 1 0 1 1 0
8
0.5122756492305302 0.4877243507694698 0.4930544499775483 0.5069455500224518 0.5421581012459004 0.4578418987540996 0.44988230497325493 0.5501176950267451
8
0 1 1 0 0 1 1 0
8
1 0 1 0 0 1 0 1
8
0 1 0 1 1 0 0 1
8
0.1846952787494001 0.8153047212505999 0.8089746258483307 0.19102537415166929 0.13412717391323684 0.8658728260867632 0.3339468767780969 0.6660531232219031
8
0 1 0 1 1 0 1 0
8
0 1 0 1 0 1 0 1
8
0 1 0 1 0 1 0 1
8
1 0 1 0 0 1 0 1
8
0 1 0 1 1 0 0 1
8
1 0 0 1 1 0 0 1
4
1 0 0 1
8
1 0 0 1 1 0 0 1
8
0 1 0 1 1 0 0 1
8
1 0 0 1 0 1 1 0
8
0 1 1 0 0 1 0 1
8
0 1 1 0 1 0 0 1
8
0 1 1 0 1 0 0 1
8
1 0 0 1 1 0 1 0
8
0 1 0 1 1 0 1 0
8
0 1 1 0 1 0 1 0
8
1 0 1 0 0 1 1 0
8
0 1 1 0 0 1 1 0
8
0 1 1 0 1 0 1 0
8
0 1 1 0 1 0 0 1
8
0 1 1 0 0 1 0 1
8
0 1 0 1 1 0 0 1
8
0.4791338553980257 0.5208661446019742 0.618423477935404 0.3815765220645961 0.542755485422347 0.457244514577653 0.7132227810360459 0.28677721896395414
8
1 0 1 0 1 0 0 1
8
0 1 1 0 1 0 1 0
8
0 1 1 0 0 1 0 1
8
0 1 0 1 1 0 1 0
8
0 1 0 1 0 1 1 0
8
1 0 0 1 1 0 1 0
8
0 1 0 1 1 0 0 1
8
0 1 0 1 0 1 0 1
4
0.13234252100987265 0.8676574789901274 0.6632222075009379 0.3367777924990621
8
0 1 0 1 0 1 0 1
8
0 1 0 1 0 1 0 1
8
1 0 1 0 0 1 0 1
8
0 1 1 0 1 0 0 1
8
0 1 0 1 0 1 1 0
8
0 1 0 1 0 1 0 1
8
0.5460801474099637 0.4539198525900363 0.7880201321452553 0.2119798678547445 0.5477081344090278 0.4522918655909723 0.6416500613061483 0.3583499386938517
8
1 0 0 1 1 0 1 0
8
1 0 1 0 0 1 1 0
8
1 0 0 1 1 0 0 1
8
1 0 0 1 1 0 0 1
8
0 1 0 1 0 1 0 1
8
1 0 1 0 1 0 1 0
8
1 0 1 0 0 1 1 0
8
1 0 1 0 0 1 0 1
8
1 0 1 0 0 1 0 1
8
1 0 0 1 1 0 1 0
8
0.04449360834398115 0.9555063916560188 0.48522897920142544 0.5147710207985744 0.2662821408661699 0.7337178591338301 0.37167615012404565 0.6283238498759544
8
1 0 1 0 0 1 0 1
8
0 1 0 1 1 0 1 0
8
1 0 0 1 1 0 0 1
8
1 0 1 0 0 1 0 1
8
1 0 1 0 0 1 1 0
8
0 1 1 0 0 1 0 1
4
1 0 1 0
8
1 0 1 0 1 0 1 0
8
0.6254495025759353 0.37455049742406465 0.4487446384795392 0.5512553615204608 0.6343539064750432 0.3656460935249569 0.3041479173903557 0.6958520826096444
8
1 0 1 0 1 0 0 1
8
1 0 1 0 0 1 0 1
8
1 0 1 0 0 1 0 1
8
0 1 1 0 0 1 1 0
8
1 0 0 1 0 1 0 1
8
0 1 0 1 1 0 1 0
8
0.630709281209772 0.3692907187902281 0.7509990806816255 0.2490009193183745 0.5328446167743134 0.46715538322568656 0.14302058932741837 0.8569794106725817
8
1 0 0 1 1 0 0 1
8
1 0 0 1 1 0 1 0
8
1 0 1 0 0 1 0 1
8
1 0 1 0 0 1 0 1
8
1 0 0 1 0 1 0 1
8
1 0 0 1 1 0 1 0
8
0 1 0 1 0 1 0 1
8
1 0 1 0 0 1 0 1
8
0 1 0 1 0 1 1 0
8
0 1 1 0 1 0 1 0
8
0 1 1 0 0 1 1 0
8
0 1 0 1 1 0 1 0
8
1 0 1 0 0 1 1 0
8
0 1 0 1 0 1 1 0
8
1 0 0 1 0 1 0 1
4
1 0 0 1
4
1 0 0 1
4
0 1 0 1
4
0 1 1 0
4
1 0 0 1
4
1 0 0 1
4
1 0 1 0
4
1 0 1 0
4
0 1 0 1
4
1 0 1 0
4
1 0 1 0
4
1 0 0 1
4
0 1 0 1
4
0 1 0 1
4
1 0 1 0
4
0 1 0 1
4
1 0 0 1
4
0 1 1 0
4
0 1 1 0
4
0 1 0 1
4
1 0 1 0
4
1 0 0 1
4
1 0 1 0
4
0 1 0 1
4
1 0 0 1
2
0 1
